p tw 48 116
0 1
0 2
0 3
0 4
1 2
1 3
1 4
2 3
2 4
2 5
3 4
5 6
5 7
5 9
5 10
5 12
5 8
5 11
6 8
6 9
6 10
6 7
6 21
6 11
6 12
7 8
7 9
7 12
7 13
7 10
7 11
8 9
8 12
8 16
8 11
8 10
9 12
9 10
9 11
9 23
10 11
10 12
10 14
11 12
11 15
12 22
13 24
13 25
13 26
13 27
14 32
14 33
14 34
14 35
15 44
15 45
15 46
15 47
16 17
16 18
16 19
16 20
17 18
17 19
17 20
18 19
18 20
19 20
21 36
21 37
21 38
21 39
22 28
22 29
22 30
22 31
23 40
23 41
23 42
23 43
24 25
24 26
24 27
25 26
25 27
26 27
28 29
28 30
28 31
29 30
29 31
30 31
32 33
32 34
32 35
33 34
33 35
34 35
36 37
36 38
36 39
37 38
37 39
38 39
40 41
40 42
40 43
41 42
41 43
42 43
44 45
44 46
44 47
45 46
45 47
46 47
